&GLOBAL
  PROJECT  WS2
  PRINT_LEVEL MEDIUM
  RUN_TYPE ENERGY
  &TIMINGS
     THRESHOLD 0.0001
  &END
&END GLOBAL
&FORCE_EVAL
  METHOD Quickstep
  &DFT
    BASIS_SET_FILE_NAME  ../BASIS_AUG_MOLOPT/BASIS_GTH_MOLOPT_AUG_for_excited_states
    BASIS_SET_FILE_NAME  ../BASIS_AUG_MOLOPT/BASIS_GTH_MOLOPT_AUG_for_excited_states_RI
    SORT_BASIS EXP
    POTENTIAL_FILE_NAME  /hppfs/work/pn36zo/di38fab/cp2k/data/GTH_SOC_POTENTIALS 
    CHARGE 0
    &MGRID
      CUTOFF  500
      REL_CUTOFF  100
    &END MGRID
    &QS
      METHOD GAPW
      EPS_DEFAULT 1.0E-12
      EPS_PGF_ORB 1.0E-12
    &END QS
    &SCF
      SCF_GUESS ATOMIC
      EPS_SCF 1.0E-9
      MAX_SCF 500
      &PRINT
        &RESTART ON
        &END
      &END
      ADDED_MOS -1
      &MIXING
          METHOD BROYDEN_MIXING
          ALPHA 0.1
          BETA 1.5
          NBROYDEN 8
      &END
    &END SCF
    &XC
      &XC_FUNCTIONAL PBE
      &END XC_FUNCTIONAL
    &END XC
    &KPOINTS
      SCHEME MONKHORST-PACK 32 32 1
      PARALLEL_GROUP_SIZE   -1
    &END KPOINTS
  &END DFT
  &PROPERTIES
    &BANDSTRUCTURE
      &GW
        NUM_TIME_FREQ_POINTS         30
        MEMORY_PER_PROC              30
        EPS_FILTER              1.0E-11
        REGULARIZATION_RI        1.0E-2
        CUTOFF_RADIUS_RI            7.0
      &END
      &SOC
      &END
      &BANDSTRUCTURE_PATH
        NPOINTS 49
	SPECIAL_POINT GAMMA 0.0 0.0 0.0
        SPECIAL_POINT K     0.333333 0.333333 0.0
      &END
      &BANDSTRUCTURE_PATH
        NPOINTS 29
        SPECIAL_POINT K     0.333333 0.333333 0.0
	SPECIAL_POINT M     0.0 0.5 0.0
      &END
      &BANDSTRUCTURE_PATH
        NPOINTS 49
	SPECIAL_POINT M     0.0 0.5 0.0
        SPECIAL_POINT GAMMA 0.0 0.0 0.0
      &END
    &END
  &END PROPERTIES
  &SUBSYS
    &CELL
      ABC                 3.186 3.186 15.0
      ALPHA_BETA_GAMMA    90 90 120
      PERIODIC XY
    &END CELL
    
    &KIND S
      BASIS_SET ORB    aug-SZV-MOLOPT-GTH  
      BASIS_SET RI_AUX RI_aug-SZV-MOLOPT-GTH_N_RI_015_s_p_d_f_g_h_i_4_2_1_0_0_0_0_error_2.8e-02
      POTENTIAL        GTH-PBE-q6
    &END KIND

    &KIND Se
      BASIS_SET ORB    aug-SZV-MOLOPT-GTH
      BASIS_SET RI_AUX RI_aug-SZV-MOLOPT-GTH_N_RI_022_s_p_d_f_g_h_i_4_2_1_1_0_0_0_error_3.8e-03
      POTENTIAL        GTH-PBE-q6
    &END KIND

    &KIND Mo
      BASIS_SET ORB    aug-SZV-MOLOPT-GTH
      BASIS_SET RI_AUX RI_aug-SZV-MOLOPT-GTH_N_RI_021_s_p_d_f_g_h_i_3_2_1_1_0_0_0_error_1.6e-02
      POTENTIAL        GTH-PBE-q14
    &END KIND

    &KIND W
      BASIS_SET ORB    aug-SZV-MOLOPT-GTH
      BASIS_SET RI_AUX RI_aug-SZV-MOLOPT-GTH_N_RI_030_s_p_d_f_g_h_i_3_2_1_1_1_0_0_error_1.8e-02
      POTENTIAL        GTH-PBE-q14
    &END KIND


    &COORD
W        0.00000000       0.00000000       9.07279744
S        1.59297297       0.91970338      10.64559488
S        1.59297297       0.91970338       7.50000000
    &END COORD
  &END SUBSYS
&END FORCE_EVAL
